
Gurobi 9.0.3 (win64) logging started Sat Feb  5 17:51:48 2022

Changed value of parameter LogFile to logs\CRVRP_5-2-7-100_0_1.LOG
   Prev: logs\CRVRP_5-2-7-100_0_0.LOG  Default: 
Changed value of parameter Seed to 1192290434
   Prev: 496878601  Min: 0  Max: 2000000000  Default: 0
Parameter Threads unchanged
   Value: 2  Min: 0  Max: 1024  Default: 0
Parameter TimeLimit unchanged
   Value: 60.0  Min: 0.0  Max: inf  Default: inf
Parameter Symmetry unchanged
   Value: 2  Min: -1  Max: 2  Default: -1
Parameter Cuts unchanged
   Value: 2  Min: -1  Max: 3  Default: -1
Parameter PreDepRow unchanged
   Value: 1  Min: -1  Max: 1  Default: -1
Parameter ScaleFlag unchanged
   Value: 1  Min: -1  Max: 3  Default: -1
Parameter NormAdjust unchanged
   Value: 0  Min: -1  Max: 3  Default: -1
Gurobi Optimizer version 9.0.3 build v9.0.3rc0 (win64)
Optimize a model with 1001 rows, 810 columns and 4006 nonzeros
Model fingerprint: 0xe35a85c4
Variable types: 32 continuous, 778 integer (522 binary)
Coefficient statistics:
  Matrix range     [1e+00, 1e+06]
  Objective range  [1e+00, 1e+00]
  Bounds range     [1e+00, 1e+04]
  RHS range        [1e+00, 1e+06]
Presolve removed 618 rows and 515 columns
Presolve time: 0.02s
Presolved: 383 rows, 295 columns, 2037 nonzeros
Variable types: 15 continuous, 280 integer (230 binary)

Root relaxation: objective 3.421916e+02, 208 iterations, 0.00 seconds

    Nodes    |    Current Node    |     Objective Bounds      |     Work
 Expl Unexpl |  Obj  Depth IntInf | Incumbent    BestBd   Gap | It/Node Time

     0     0  342.19162    0   42          -  342.19162      -     -    0s
H    0     0                    1435.9452391  342.19162  76.2%     -    0s
H    0     0                    1298.2258371  342.19162  73.6%     -    0s
     0     0  374.21008    0   49 1298.22584  374.21008  71.2%     -    0s
H    0     0                    1025.6904884  374.21008  63.5%     -    0s
H    0     0                     984.9915670  374.21008  62.0%     -    0s
     0     0  383.36234    0   54  984.99157  383.36234  61.1%     -    0s
H    0     0                     773.4994112  383.36234  50.4%     -    0s
H    0     0                     744.1364186  383.36234  48.5%     -    0s
     0     0  383.94315    0   53  744.13642  383.94315  48.4%     -    0s
     0     0  383.94315    0   56  744.13642  383.94315  48.4%     -    0s
     0     0  385.13494    0   49  744.13642  385.13494  48.2%     -    0s
H    0     0                     613.7204775  385.13494  37.2%     -    0s
     0     0  385.21027    0   51  613.72048  385.21027  37.2%     -    0s
     0     0  385.27114    0   62  613.72048  385.27114  37.2%     -    0s
     0     0  387.09285    0   46  613.72048  387.09285  36.9%     -    0s
H    0     0                     596.9791282  387.09285  35.2%     -    0s
     0     0  387.27256    0   53  596.97913  387.27256  35.1%     -    0s
     0     0  387.28186    0   55  596.97913  387.28186  35.1%     -    0s
     0     0  388.42614    0   44  596.97913  388.42614  34.9%     -    0s
     0     0  388.90486    0   52  596.97913  388.90486  34.9%     -    0s
     0     0  388.90486    0   52  596.97913  388.90486  34.9%     -    0s
     0     0  389.40455    0   60  596.97913  389.40455  34.8%     -    0s
     0     0  389.40455    0   62  596.97913  389.40455  34.8%     -    0s
     0     0  389.43429    0   62  596.97913  389.43429  34.8%     -    0s
     0     0  389.43429    0   50  596.97913  389.43429  34.8%     -    0s
H    0     0                     594.4038624  389.43429  34.5%     -    0s
     0     2  389.74469    0   50  594.40386  389.74469  34.4%     -    0s
H   29    29                     524.1364186  390.51845  25.5%  29.7    0s
*   86    55              31     512.2500918  390.51845  23.8%  21.0    0s
H  864   169                     501.2247121  451.07969  10.0%  14.7    1s
* 1211   169              15     493.4748039  462.91171  6.19%  14.2    1s
* 1256   168              26     490.8833582  462.91171  5.70%  13.9    1s
* 1288   161              19     483.4025325  462.91171  4.24%  13.8    1s
* 1974   126               7     474.5297041  462.91171  2.45%  13.0    2s

Cutting planes:
  Gomory: 13
  Cover: 6
  Implied bound: 50
  Projected implied bound: 2
  Clique: 8
  MIR: 79
  StrongCG: 2
  Flow cover: 249
  GUB cover: 1
  Inf proof: 14
  Zero half: 13
  RLT: 203
  Relax-and-lift: 139

Explored 2712 nodes (33843 simplex iterations) in 2.89 seconds
Thread count was 2 (of 8 available processors)

Solution count 10: 474.53 483.403 490.883 ... 613.72

Optimal solution found (tolerance 1.00e-04)
Best objective 4.745297040578e+02, best bound 4.745297040578e+02, gap 0.0000%
Discarded solution information
